NAME : amz2956.116842_116842.tour
COMMENT : Cost = 116842_116842
COMMENT : Found by LKH-AMZ [Keld Helsgaun] Sun May 11 15:25:02 2025
COMMENT : TW viol.: 0 #: 0
TYPE : TOUR
DIMENSION : 178
TOUR_SECTION
101
116
106
162
170
53
131
152
21
136
64
11
161
111
28
100
57
48
58
47
43
65
141
33
27
89
120
34
169
105
31
119
50
113
70
83
5
130
107
20
154
88
133
148
146
56
18
41
35
55
92
93
68
171
115
178
38
158
9
51
15
71
90
80
174
86
44
166
25
138
95
132
73
172
24
63
168
149
155
143
125
74
79
94
104
110
164
156
77
29
81
160
91
176
17
82
127
157
16
112
26
87
114
32
117
10
66
129
3
109
128
153
99
14
42
173
150
72
45
108
126
103
163
167
121
137
147
19
118
159
97
49
30
36
84
177
124
67
13
175
85
75
37
12
6
134
123
7
139
46
39
144
8
22
122
59
23
1
40
142
165
96
98
4
54
60
151
135
140
76
78
62
2
61
145
52
69
102
-1
EOF
